NAME: tsp25_5
COMMENT: 25-tsp problem (Padberg/Rinaldi)
TYPE: TSP
DIMENSION: 25
EDGE_WEIGHT_TYPE : EUC_2D
NODE_COORD_SECTION
1 25 4
2 16 7
3 4 34
4 8 38
5 34 9
6 28 8
7 25 26
8 1 23
9 17 23
10 40 16
11 39 20
12 20 10
13 1 5
14 28 28
15 5 35
16 16 27
17 1 2
18 7 25
19 11 27
20 22 37
21 37 9
22 11 37
23 19 15
24 17 1
25 0 36
